1417
150
149
139
140
141
148
142
147
179
180
176
181
182
183
184
185
186
187
188
189
190
191
192
193
194
195
196
201
197
198
199
145
146
143
144
200
202
203
204
205
206
212
207
208
253
254
257
258
259
261
262
263
264
265
266
138
137
267
136
268
269
135
270
134
133
132
131
130
21
20
19
18
17
16
271
272
273
15
14
24
23
25
22
26
27
28
29
31
32
33
34
43
60
61
62
118
117
116
115
114
111
110
107
105
106
171
172
166
165
164
163
162
173
174
161
175
160
159
158
157
119
120
121
122
123
124
125
30
126
127
128
129
154
155
153
156
152
151
177
178
